check/instances/MIP/stein27.fzn
% SCIP STATISTICS
% Problem name     : STEIN27
% Variables        : 27 (27 binary, 0 integer, 0 implicit integer, 0 continuous)
% Constraints      : 118

%%%%%% Problem variables %%%%%%
var 0..1: x0001;
var 0..1: x0002;
var 0..1: x0003;
var 0..1: x0004;
var 0..1: x0005;
var 0..1: x0006;
var 0..1: x0007;
var 0..1: x0008;
var 0..1: x0009;
var 0..1: x0010;
var 0..1: x0011;
var 0..1: x0012;
var 0..1: x0013;
var 0..1: x0014;
var 0..1: x0015;
var 0..1: x0016;
var 0..1: x0017;
var 0..1: x0018;
var 0..1: x0019;
var 0..1: x0020;
var 0..1: x0021;
var 0..1: x0022;
var 0..1: x0023;
var 0..1: x0024;
var 0..1: x0025;
var 0..1: x0026;
var 0..1: x0027;

%%%%%% Problem constraints %%%%%%
constraint int_lin_ge([1, 1, 1], [x0002, x0003, x0004], 1);
constraint int_lin_ge([1, 1, 1], [x0001, x0003, x0005], 1);
constraint int_lin_ge([1, 1, 1], [x0001, x0002, x0006], 1);
constraint int_lin_ge([1, 1, 1], [x0005, x0006, x0007], 1);
constraint int_lin_ge([1, 1, 1], [x0004, x0006, x0008], 1);
constraint int_lin_ge([1, 1, 1], [x0004, x0005, x0009], 1);
constraint int_lin_ge([1, 1, 1], [x0001, x0008, x0009], 1);
constraint int_lin_ge([1, 1, 1], [x0002, x0007, x0009], 1);
constraint int_lin_ge([1, 1, 1], [x0003, x0007, x0008], 1);
constraint int_lin_ge([1, 1, 1], [x0001, x0004, x0007], 1);
constraint int_lin_ge([1, 1, 1], [x0002, x0005, x0008], 1);
constraint int_lin_ge([1, 1, 1], [x0003, x0006, x0009], 1);
constraint int_lin_ge([1, 1, 1], [x0011, x0012, x0013], 1);
constraint int_lin_ge([1, 1, 1], [x0010, x0012, x0014], 1);
constraint int_lin_ge([1, 1, 1], [x0010, x0011, x0015], 1);
constraint int_lin_ge([1, 1, 1], [x0014, x0015, x0016], 1);
constraint int_lin_ge([1, 1, 1], [x0013, x0015, x0017], 1);
constraint int_lin_ge([1, 1, 1], [x0013, x0014, x0018], 1);
constraint int_lin_ge([1, 1, 1], [x0010, x0017, x0018], 1);
constraint int_lin_ge([1, 1, 1], [x0011, x0016, x0018], 1);
constraint int_lin_ge([1, 1, 1], [x0012, x0016, x0017], 1);
constraint int_lin_ge([1, 1, 1], [x0010, x0013, x0016], 1);
constraint int_lin_ge([1, 1, 1], [x0011, x0014, x0017], 1);
constraint int_lin_ge([1, 1, 1], [x0012, x0015, x0018], 1);
constraint int_lin_ge([1, 1, 1], [x0020, x0021, x0022], 1);
constraint int_lin_ge([1, 1, 1], [x0019, x0021, x0023], 1);
constraint int_lin_ge([1, 1, 1], [x0019, x0020, x0024], 1);
constraint int_lin_ge([1, 1, 1], [x0023, x0024, x0025], 1);
constraint int_lin_ge([1, 1, 1], [x0022, x0024, x0026], 1);
constraint int_lin_ge([1, 1, 1], [x0022, x0023, x0027], 1);
constraint int_lin_ge([1, 1, 1], [x0019, x0026, x0027], 1);
constraint int_lin_ge([1, 1, 1], [x0020, x0025, x0027], 1);
constraint int_lin_ge([1, 1, 1], [x0021, x0025, x0026], 1);
constraint int_lin_ge([1, 1, 1], [x0019, x0022, x0025], 1);
constraint int_lin_ge([1, 1, 1], [x0020, x0023, x0026], 1);
constraint int_lin_ge([1, 1, 1], [x0021, x0024, x0027], 1);
constraint int_lin_ge([1, 1, 1], [x0001, x0010, x0019], 1);
constraint int_lin_ge([1, 1, 1], [x0001, x0011, x0024], 1);
constraint int_lin_ge([1, 1, 1], [x0001, x0012, x0023], 1);
constraint int_lin_ge([1, 1, 1], [x0001, x0013, x0025], 1);
constraint int_lin_ge([1, 1, 1], [x0001, x0014, x0021], 1);
constraint int_lin_ge([1, 1, 1], [x0001, x0015, x0020], 1);
constraint int_lin_ge([1, 1, 1], [x0001, x0016, x0022], 1);
constraint int_lin_ge([1, 1, 1], [x0001, x0017, x0027], 1);
constraint int_lin_ge([1, 1, 1], [x0001, x0018, x0026], 1);
constraint int_lin_ge([1, 1, 1], [x0002, x0010, x0024], 1);
constraint int_lin_ge([1, 1, 1], [x0002, x0011, x0020], 1);
constraint int_lin_ge([1, 1, 1], [x0002, x0012, x0022], 1);
constraint int_lin_ge([1, 1, 1], [x0002, x0013, x0021], 1);
constraint int_lin_ge([1, 1, 1], [x0002, x0014, x0026], 1);
constraint int_lin_ge([1, 1, 1], [x0002, x0015, x0019], 1);
constraint int_lin_ge([1, 1, 1], [x0002, x0016, x0027], 1);
constraint int_lin_ge([1, 1, 1], [x0002, x0017, x0023], 1);
constraint int_lin_ge([1, 1, 1], [x0002, x0018, x0025], 1);
constraint int_lin_ge([1, 1, 1], [x0003, x0010, x0023], 1);
constraint int_lin_ge([1, 1, 1], [x0003, x0011, x0022], 1);
constraint int_lin_ge([1, 1, 1], [x0003, x0012, x0021], 1);
constraint int_lin_ge([1, 1, 1], [x0003, x0013, x0020], 1);
constraint int_lin_ge([1, 1, 1], [x0003, x0014, x0019], 1);
constraint int_lin_ge([1, 1, 1], [x0003, x0015, x0027], 1);
constraint int_lin_ge([1, 1, 1], [x0003, x0016, x0026], 1);
constraint int_lin_ge([1, 1, 1], [x0003, x0017, x0025], 1);
constraint int_lin_ge([1, 1, 1], [x0003, x0018, x0024], 1);
constraint int_lin_ge([1, 1, 1], [x0004, x0010, x0025], 1);
constraint int_lin_ge([1, 1, 1], [x0004, x0011, x0021], 1);
constraint int_lin_ge([1, 1, 1], [x0004, x0012, x0020], 1);
constraint int_lin_ge([1, 1, 1], [x0004, x0013, x0022], 1);
constraint int_lin_ge([1, 1, 1], [x0004, x0014, x0027], 1);
constraint int_lin_ge([1, 1, 1], [x0004, x0015, x0026], 1);
constraint int_lin_ge([1, 1, 1], [x0004, x0016, x0019], 1);
constraint int_lin_ge([1, 1, 1], [x0004, x0017, x0024], 1);
constraint int_lin_ge([1, 1, 1], [x0004, x0018, x0023], 1);
constraint int_lin_ge([1, 1, 1], [x0005, x0010, x0021], 1);
constraint int_lin_ge([1, 1, 1], [x0005, x0011, x0026], 1);
constraint int_lin_ge([1, 1, 1], [x0005, x0012, x0019], 1);
constraint int_lin_ge([1, 1, 1], [x0005, x0013, x0027], 1);
constraint int_lin_ge([1, 1, 1], [x0005, x0014, x0023], 1);
constraint int_lin_ge([1, 1, 1], [x0005, x0015, x0025], 1);
constraint int_lin_ge([1, 1, 1], [x0005, x0016, x0024], 1);
constraint int_lin_ge([1, 1, 1], [x0005, x0017, x0020], 1);
constraint int_lin_ge([1, 1, 1], [x0005, x0018, x0022], 1);
constraint int_lin_ge([1, 1, 1], [x0006, x0010, x0020], 1);
constraint int_lin_ge([1, 1, 1], [x0006, x0011, x0019], 1);
constraint int_lin_ge([1, 1, 1], [x0006, x0012, x0027], 1);
constraint int_lin_ge([1, 1, 1], [x0006, x0013, x0026], 1);
constraint int_lin_ge([1, 1, 1], [x0006, x0014, x0025], 1);
constraint int_lin_ge([1, 1, 1], [x0006, x0015, x0024], 1);
constraint int_lin_ge([1, 1, 1], [x0006, x0016, x0023], 1);
constraint int_lin_ge([1, 1, 1], [x0006, x0017, x0022], 1);
constraint int_lin_ge([1, 1, 1], [x0006, x0018, x0021], 1);
constraint int_lin_ge([1, 1, 1], [x0007, x0010, x0022], 1);
constraint int_lin_ge([1, 1, 1], [x0007, x0011, x0027], 1);
constraint int_lin_ge([1, 1, 1], [x0007, x0012, x0026], 1);
constraint int_lin_ge([1, 1, 1], [x0007, x0013, x0019], 1);
constraint int_lin_ge([1, 1, 1], [x0007, x0014, x0024], 1);
constraint int_lin_ge([1, 1, 1], [x0007, x0015, x0023], 1);
constraint int_lin_ge([1, 1, 1], [x0007, x0016, x0025], 1);
constraint int_lin_ge([1, 1, 1], [x0007, x0017, x0021], 1);
constraint int_lin_ge([1, 1, 1], [x0007, x0018, x0020], 1);
constraint int_lin_ge([1, 1, 1], [x0008, x0010, x0027], 1);
constraint int_lin_ge([1, 1, 1], [x0008, x0011, x0023], 1);
constraint int_lin_ge([1, 1, 1], [x0008, x0012, x0025], 1);
constraint int_lin_ge([1, 1, 1], [x0008, x0013, x0024], 1);
constraint int_lin_ge([1, 1, 1], [x0008, x0014, x0020], 1);
constraint int_lin_ge([1, 1, 1], [x0008, x0015, x0022], 1);
constraint int_lin_ge([1, 1, 1], [x0008, x0016, x0021], 1);
constraint int_lin_ge([1, 1, 1], [x0008, x0017, x0026], 1);
constraint int_lin_ge([1, 1, 1], [x0008, x0018, x0019], 1);
constraint int_lin_ge([1, 1, 1], [x0009, x0010, x0026], 1);
constraint int_lin_ge([1, 1, 1], [x0009, x0011, x0025], 1);
constraint int_lin_ge([1, 1, 1], [x0009, x0012, x0024], 1);
constraint int_lin_ge([1, 1, 1], [x0009, x0013, x0023], 1);
constraint int_lin_ge([1, 1, 1], [x0009, x0014, x0022], 1);
constraint int_lin_ge([1, 1, 1], [x0009, x0015, x0021], 1);
constraint int_lin_ge([1, 1, 1], [x0009, x0016, x0020], 1);
constraint int_lin_ge([1, 1, 1], [x0009, x0017, x0019], 1);
constraint int_lin_ge([1, 1, 1], [x0009, x0018, x0027], 1);
constraint int_lin_ge([1, 1, 1, 1, 1, 1, 1, 1, 1, 1, 1, 1, 1, 1, 1, 1, 1, 1, 1, 1, 1, 1, 1, 1, 1, 1, 1], [x0001, x0002, x0003, x0004, x0005, x0006, x0007, x0008, x0009, x0010, x0011, x0012, x0013, x0014, x0015, x0016, x0017, x0018, x0019, x0020, x0021, x0022, x0023, x0024, x0025, x0026, x0027], 13);

%%%%%% Objective function %%%%%%
solve minimize int_float_lin([1.0, 1.0, 1.0, 1.0, 1.0, 1.0, 1.0, 1.0, 1.0, 1.0, 1.0, 1.0, 1.0, 1.0, 1.0, 1.0, 1.0, 1.0, 1.0, 1.0, 1.0, 1.0, 1.0, 1.0, 1.0, 1.0, 1.0], [], [x0001, x0002, x0003, x0004, x0005, x0006, x0007, x0008, x0009, x0010, x0011, x0012, x0013, x0014, x0015, x0016, x0017, x0018, x0019, x0020, x0021, x0022, x0023, x0024, x0025, x0026, x0027], []);
